nbV = 14;
nbE = 13;
map = [|false,false,false,false,false,false,false,false,true,false,false,false,false
|false,false,false,false,false,false,false,false,false,false,false,true,false
|false,false,false,false,false,false,false,false,false,true,true,false,false
|false,false,false,false,false,false,true,true,false,false,false,false,false
|true,false,false,false,false,false,false,false,false,false,false,false,false
|true,false,false,true,false,false,false,false,false,false,false,false,false
|false,false,true,false,false,false,false,false,false,false,false,false,false
|false,false,false,false,false,false,false,false,false,false,false,false,true
|false,false,false,false,true,true,false,false,false,false,false,false,false
|false,true,false,false,false,false,false,false,false,false,false,false,false
|false,true,true,false,false,true,false,false,false,false,false,false,false
|false,false,false,false,true,false,false,true,false,false,true,false,false
|false,false,false,true,false,false,true,false,true,false,false,false,false
|false,false,false,false,false,false,false,false,false,true,false,true,true
|];
endnodes = [|false,false,false,false,true,true,false,false,false,false,false,false,false,false
|false,false,false,false,false,false,false,false,false,true,true,false,false,false
|false,false,false,false,false,false,true,false,false,false,true,false,false,false
|false,false,false,false,false,true,false,false,false,false,false,false,true,false
|false,false,false,false,false,false,false,false,true,false,false,true,false,false
|false,false,false,false,false,false,false,false,true,false,true,false,false,false
|false,false,false,true,false,false,false,false,false,false,false,false,true,false
|false,false,false,true,false,false,false,false,false,false,false,true,false,false
|true,false,false,false,false,false,false,false,false,false,false,false,true,false
|false,false,true,false,false,false,false,false,false,false,false,false,false,true
|false,false,true,false,false,false,false,false,false,false,false,true,false,false
|false,true,false,false,false,false,false,false,false,false,false,false,false,true
|false,false,false,false,false,false,false,true,false,false,false,false,false,true
|];
terminals = {1,2,3,4,5,6,7,8,9,10};
link_cost = [2921635,85801,228120,3151177,2607082,4042160,4290001,806091,2932611,624120,3503878,191492,640904];
